3 16 1 10
15 11 10 19 12 5 2 19 2 6 4 4 4 20 3 14 
2.07 12.03 8.85 1.86 3.01 1.38 15.23 10.65 10.91 5.27 8.66 5.79 11.31 8.42 4.22 6.8 
8 8 8 8 8 8 8 8 8 8 8 8 8 8 8 8 
14.83 13.12 13.43 9.14 11.62 14.1 7.68 12.81 13.47 5.6 11.92 12.36 10.57 14.34 14.62 12.57 
1 1 1 1 1 1 1 1 1 1 1 1 1 1 1 1 
1 1 1 1 1 1 1 1 1 1 1 1 1 1 1 1 
1 1 1 1 1 1 1 1 1 1 1 1 1 1 1 1 
0.01 0.01 0.01 0.01 0.01 0.01 0.01 0.01 0.01 0.01 0.01 0.01 0.01 0.01 0.01 0.01 
0.02 0.02 0.02 0.02 0.02 0.02 0.02 0.02 0.02 0.02 0.02 0.02 0.02 0.02 0.02 0.02 
1 1 1 1 1 1 1 1 1 1 1 1 1 1 1 1 
